analyze/results_flowersnark/final_miplib_symretope_if_extended_generating_set_cpx_v802__settings_final_nosym_norestarts__4__neos-525149.mps.gz.sol
solution status: optimal solution found
objective value:                                   61
C0098                                               1 	(obj:1)
C0143                                               1 	(obj:1)
C0216                                               1 	(obj:1)
C0221                                               1 	(obj:1)
C0324                                               1 	(obj:1)
C0363                                               1 	(obj:1)
C0442                                               1 	(obj:1)
C0486                                               1 	(obj:1)
C0570                                               1 	(obj:1)
C0607                                               1 	(obj:1)
C0695                                               1 	(obj:1)
C0703                                               1 	(obj:1)
C0806                                               1 	(obj:1)
C0861                                               1 	(obj:1)
C0925                                               1 	(obj:1)
C0952                                               1 	(obj:1)
C1048                                               1 	(obj:1)
C1062                                               1 	(obj:1)
C1158                                               1 	(obj:1)
C1227                                               1 	(obj:1)
C1280                                               1 	(obj:1)
C1330                                               1 	(obj:1)
C1381                                               1 	(obj:1)
C1425                                               1 	(obj:1)
C1497                                               1 	(obj:1)
C1555                                               1 	(obj:1)
C1624                                               1 	(obj:1)
C1682                                               1 	(obj:1)
C1733                                               1 	(obj:1)
C1837                                               1 	(obj:1)
C1850                                               1 	(obj:1)
C1937                                               1 	(obj:1)
C1969                                               1 	(obj:1)
C2048                                               1 	(obj:1)
C2111                                               1 	(obj:1)
C2148                                               1 	(obj:1)
C2207                                               1 	(obj:1)
C2296                                               1 	(obj:1)
C2379                                               1 	(obj:1)
C2391                                               1 	(obj:1)
C2489                                               1 	(obj:1)
C2560                                               1 	(obj:1)
C2574                                               1 	(obj:1)
C2649                                               1 	(obj:1)
C2705                                               1 	(obj:1)
C2760                                               1 	(obj:1)
C2818                                               1 	(obj:1)
C2894                                               1 	(obj:1)
C2926                                               1 	(obj:1)
C3032                                               1 	(obj:1)
C3079                                               1 	(obj:1)
C3133                                               1 	(obj:1)
C3164                                               1 	(obj:1)
C3236                                               1 	(obj:1)
C3333                                               1 	(obj:1)
C3359                                               1 	(obj:1)
C3451                                               1 	(obj:1)
C3514                                               1 	(obj:1)
C3552                                               1 	(obj:1)
C3615                                               1 	(obj:1)
C0024                                               1 	(obj:1)
